NAME          ClpDefau
ROWS
 N  OBJROW
 L  R_128_0
 L  R_128_1
 L  R_128_2
 L  R_128_3
 L  R_128_4
 L  R_128_5
 L  R_128_6
 L  R_128_7
 L  R_128_8
 L  R_128_9
 L  R_128_10
 L  R_128_11
 L  R_128_12
 L  R_128_13
 L  R_128_14
 L  R_128_15
COLUMNS
    x_0       OBJROW     -1.           R_128_1   3.          
    x_1       OBJROW     -2.           R_128_1   3.          
    x_1       R_128_3   6.             R_128_4   9.          
    x_1       R_128_8   8.          
    x_2       OBJROW     -2.           R_128_1   7.          
    x_3       OBJROW     -6.           R_128_4   10.         
    x_4       OBJROW     -3.           R_128_3   6.          
    x_4       R_128_6   2.             R_128_7   1.          
    x_4       R_128_11  9.             R_128_12  5.          
    x_5       OBJROW     -5.           R_128_2   6.          
    x_5       R_128_5   2.             R_128_7   1.          
    x_5       R_128_9   3.             R_128_12  10.         
    x_5       R_128_13  4.             R_128_14  1.          
    x_5       R_128_15  10.         
    x_6       OBJROW     -5.           R_128_7   5.          
    x_6       R_128_15  8.          
    x_7       OBJROW     -10.          R_128_15  3.          
RHS
    RHS       R_128_0   3.             R_128_1   9.          
    RHS       R_128_2   5.             R_128_3   10.         
    RHS       R_128_4   2.             R_128_5   5.          
    RHS       R_128_6   5.             R_128_7   9.          
    RHS       R_128_8   3.             R_128_9   6.          
    RHS       R_128_10  3.             R_128_11  5.          
    RHS       R_128_12  7.             R_128_13  6.          
    RHS       R_128_14  8.             R_128_15  6.          
BOUNDS
 UI BOUND     x_0       10.         
 UI BOUND     x_1       10.         
 UI BOUND     x_2       10.         
 UI BOUND     x_3       10.         
 UI BOUND     x_4       10.         
 UI BOUND     x_5       10.         
 UI BOUND     x_6       10.         
 UI BOUND     x_7       10.         
ENDATA
